Geographic Exponential Decay
80 51 207 23 106 109 120 231 20 36 37 241 232 237 167 248 291 309 229 40 270 258 60 185 177 311 79 310 293 208 261 54 260 3 94 199 182 218 137 75 121 72 206 81 7 217 1 230 33 74 6 194 113 70 67 267 174 284 305 304 80 240 52 224 141 268 144 282 195 307 104 219 247 254 108 89 287 87 107 243 142
p edge 320 322
e 0 262 1.0
e 1 316 9.0
e 1 134 34.0
e 1 36 16.0
e 1 0 48.0
e 2 173 4.0
e 2 1 93.0
e 3 231 50.0
e 3 99 85.0
e 3 314 14.0
e 3 2 88.0
e 4 289 22.0
e 4 3 10.0
e 5 97 1.0
e 5 4 3.0
e 6 222 63.0
e 6 114 6.0
e 6 204 36.0
e 6 5 55.0
e 7 126 58.0
e 7 290 35.0
e 7 60 37.0
e 7 6 51.0
e 8 38 2.0
e 8 7 39.0
e 9 292 4.0
e 9 8 2.0
e 10 15 8.0
e 10 9 1.0
e 11 192 7.0
e 11 10 1.0
e 12 145 3.0
e 12 11 2.0
e 13 178 1.0
e 13 12 1.0
e 14 127 1.0
e 14 13 5.0
e 16 128 1.0
e 16 14 3.0
e 17 268 60.0
e 17 16 5.0
e 18 219 34.0
e 19 85 4.0
e 19 17 4.0
e 20 21 59.0
e 20 52 53.0
e 20 291 30.0
e 22 187 5.0
e 22 19 1.0
e 23 168 93.0
e 23 182 45.0
e 23 113 78.0
e 24 239 3.0
e 24 22 2.0
e 25 140 9.0
e 25 24 1.0
e 26 311 45.0
e 26 25 3.0
e 27 47 4.0
e 27 26 4.0
e 28 171 1.0
e 28 27 4.0
e 29 95 1.0
e 29 28 2.0
e 30 129 5.0
e 30 29 2.0
e 31 57 3.0
e 31 30 1.0
e 32 248 32.0
e 32 31 2.0
e 33 45 85.0
e 33 130 16.0
e 33 311 49.0
e 34 123 4.0
e 34 32 2.0
e 35 211 1.0
e 35 34 3.0
e 36 217 33.0
e 36 53 42.0
e 37 74 60.0
e 37 149 98.0
e 37 157 87.0
e 37 35 28.0
e 39 165 1.0
e 39 37 19.0
e 40 143 59.0
e 40 282 88.0
e 40 115 93.0
e 41 108 32.0
e 42 232 38.0
e 43 98 11.0
e 43 39 2.0
e 44 207 59.0
e 44 63 7.0
e 44 43 13.0
e 46 179 1.0
e 46 44 40.0
e 48 156 1.0
e 48 46 1.0
e 49 90 3.0
e 49 48 6.0
e 50 87 53.0
e 50 49 1.0
e 51 52 19.0
e 51 253 38.0
e 51 113 91.0
e 52 199 18.0
e 54 141 2.0
e 54 233 14.0
e 54 154 52.0
e 55 300 2.0
e 55 50 10.0
e 56 226 1.0
e 56 55 8.0
e 58 258 36.0
e 59 291 77.0
e 60 199 51.0
e 60 61 30.0
e 62 218 32.0
e 64 250 8.0
e 64 56 3.0
e 65 234 1.0
e 65 64 1.0
e 66 230 69.0
e 67 151 67.0
e 67 311 56.0
e 67 193 12.0
e 68 69 4.0
e 68 65 1.0
e 70 76 37.0
e 70 182 51.0
e 70 110 91.0
e 71 302 1.0
e 71 68 1.0
e 72 172 49.0
e 72 89 13.0
e 72 73 86.0
e 74 133 78.0
e 74 305 52.0
e 75 135 60.0
e 75 169 30.0
e 75 77 57.0
e 75 71 41.0
e 78 207 10.0
e 79 269 6.0
e 79 80 58.0
e 79 216 16.0
e 80 219 25.0
e 80 189 7.0
e 81 280 7.0
e 81 315 99.0
e 81 288 51.0
e 81 75 10.0
e 82 317 2.0
e 82 81 14.0
e 83 84 2.0
e 83 82 4.0
e 86 197 2.0
e 86 83 5.0
e 87 150 84.0
e 87 88 12.0
e 89 272 92.0
e 89 291 77.0
e 91 268 71.0
e 92 270 94.0
e 92 86 5.0
e 93 155 3.0
e 93 92 3.0
e 94 268 72.0
e 94 180 84.0
e 94 274 97.0
e 96 163 2.0
e 96 93 3.0
e 100 206 8.0
e 100 96 3.0
e 101 270 12.0
e 102 295 1.0
e 102 100 1.0
e 103 104 78.0
e 103 102 1.0
e 104 227 11.0
e 104 105 86.0
e 106 205 72.0
e 106 251 63.0
e 106 207 40.0
e 107 293 31.0
e 107 108 49.0
e 107 109 38.0
e 108 194 48.0
e 109 110 71.0
e 109 296 73.0
e 111 270 2.0
e 112 196 4.0
e 112 103 7.0
e 113 139 47.0
e 116 244 1.0
e 116 112 9.0
e 117 118 2.0
e 117 116 2.0
e 119 120 2.0
e 119 117 1.0
e 120 121 61.0
e 120 122 16.0
e 121 124 52.0
e 121 297 25.0
e 124 125 12.0
e 131 132 2.0
e 131 119 1.0
e 136 137 91.0
e 137 208 59.0
e 137 138 38.0
e 141 142 13.0
e 141 144 36.0
e 142 144 57.0
e 142 293 76.0
e 144 235 90.0
e 146 147 1.0
e 146 131 2.0
e 148 304 79.0
e 148 146 4.0
e 152 153 1.0
e 152 148 1.0
e 158 230 75.0
e 159 201 2.0
e 159 152 2.0
e 160 161 5.0
e 160 159 1.0
e 162 164 4.0
e 162 160 7.0
e 166 283 4.0
e 166 162 3.0
e 167 170 57.0
e 167 174 88.0
e 167 175 95.0
e 174 176 10.0
e 174 177 88.0
e 177 181 91.0
e 177 208 97.0
e 182 223 26.0
e 183 267 53.0
e 183 166 5.0
e 184 185 2.0
e 185 263 89.0
e 185 304 48.0
e 186 188 5.0
e 186 183 1.0
e 190 191 49.0
e 191 232 47.0
e 194 195 25.0
e 194 254 72.0
e 195 198 10.0
e 195 199 50.0
e 200 202 2.0
e 200 186 1.0
e 203 303 14.0
e 203 200 2.0
e 206 318 52.0
e 206 208 68.0
e 209 210 1.0
e 209 203 5.0
e 212 245 1.0
e 212 209 2.0
e 213 214 10.0
e 213 212 1.0
e 215 248 27.0
e 217 218 58.0
e 217 219 94.0
e 218 220 6.0
e 221 224 2.0
e 221 213 12.0
e 224 225 61.0
e 224 228 85.0
e 229 230 93.0
e 229 231 92.0
e 229 232 35.0
e 231 236 12.0
e 237 238 54.0
e 237 240 16.0
e 237 241 14.0
e 237 221 58.0
e 240 241 25.0
e 240 242 25.0
e 241 243 16.0
e 243 264 72.0
e 243 246 62.0
e 247 248 7.0
e 247 249 44.0
e 247 313 8.0
e 252 254 82.0
e 254 255 20.0
e 256 257 1.0
e 256 237 95.0
e 258 259 54.0
e 258 260 28.0
e 260 261 84.0
e 260 310 37.0
e 261 265 17.0
e 261 266 19.0
e 267 271 69.0
e 267 298 89.0
e 273 275 1.0
e 273 256 5.0
e 276 301 2.0
e 276 273 12.0
e 277 278 1.0
e 277 276 8.0
e 279 281 3.0
e 279 277 1.0
e 282 284 4.0
e 282 285 47.0
e 284 286 61.0
e 284 287 72.0
e 287 293 51.0
e 287 294 18.0
e 299 304 1.0
e 305 306 65.0
e 305 307 1.0
e 307 308 41.0
e 307 309 38.0
e 309 310 85.0
e 309 312 67.0
e 310 319 4.0
